NAME : OMNETRUN
COMMENT : 524.61
TYPE : CVRP
DIMENSION : 21
EDGE_WEIGHT_TYPE : EUC_2D
CAPACITY : 21
NODE_COORD_SECTION
1 0.107093 -0.77924
2 208.872 -658.806
3 180.145 -1315.37
4 98.3434 -2163.61
5 133.489 -3878.61
6 76.7984 -4574.59
7 57.0216 -5007.07
8 318.99 -2774.87
9 334.009 -3514.64
10 407.046 -4770.66
11 440.823 -5566.51
12 303.636 -5929.49
13 693.494 -333.076
14 581.568 -682.375
15 606.313 -1106.79
16 657.518 -2496.28
17 705.81 -3188.56
18 654.666 -4400.8
19 649.319 -5050.07
20 695.37 -5920.3
21 767.061 -1926.3
DEMAND_SECTION
1 0
2 1
3 1
4 1
5 1
6 1
7 1
8 1
9 1
10 1
11 1
12 1
13 1
14 1
15 1
16 1
17 1
18 1
19 1
20 1
21 1
DEPOT_SECTION
1
-1
EOF
